50, 14006
959, 1058
141, 241
24, 123
999, 1099
185, 285
121, 221
652, 753
346, 446
890, 988
232, 334
960, 1059
320, 420
602, 702
933, 1035
686, 788
924, 1024
709, 809
49, 147
882, 984
590, 688
311, 411
191, 290
850, 949
583, 682
938, 1036
774, 872
962, 1062
567, 668
699, 800
613, 712
259, 360
957, 1055
313, 413
782, 884
955, 1057
651, 751
143, 245
826, 926
668, 768
186, 286
50, 152
532, 633
33, 133
926, 1027
507, 608
518, 617
410, 511
661, 763
917, 1018
308, 410
